words_hard_train/6799.qaiger
aag 130 15 0 1 115
2
4
12
16
28
30
48
50
108
118
146
156
186
188
222
260
6 3 5
8 2 4
10 7 9
14 11 13
18 14 17
20 10 12
22 20 16
24 19 23
26 23 9
32 29 31
34 28 30
36 33 35
38 26 37
40 27 36
42 39 41
44 25 43
46 41 35
52 49 51
54 48 50
56 53 55
58 46 57
60 47 56
62 59 61
64 45 62
66 44 63
68 65 67
70 24 42
72 71 45
74 13 3
76 75 9
78 77 19
80 4 30
82 5 31
84 81 83
86 78 84
88 73 87
90 79 85
92 89 91
94 83 50
96 82 51
98 95 97
100 92 98
102 69 101
104 93 99
106 103 105
110 97 108
112 96 109
114 111 113
116 61 55
120 119 109
122 118 108
124 121 123
126 116 125
128 117 124
130 127 129
132 67 130
134 66 131
136 133 135
138 115 137
140 106 139
142 114 136
144 141 143
148 113 146
150 112 147
152 149 151
154 129 123
158 157 147
160 156 146
162 159 161
164 154 163
166 155 162
168 165 167
170 135 168
172 134 169
174 171 173
176 153 175
178 145 177
180 152 174
182 179 181
184 167 161
190 187 189
192 186 188
194 191 193
196 184 195
198 185 194
200 197 199
202 200 173
204 201 172
206 203 205
208 151 186
210 150 187
212 209 211
214 207 213
216 183 215
218 206 212
220 217 219
224 188 222
226 189 223
228 225 227
230 199 193
232 228 231
234 229 230
236 233 235
238 221 236
240 210 223
242 211 222
244 241 243
246 239 244
248 246 205
250 245 204
252 220 251
254 253 239
256 236 251
258 255 257
260 249 259
i0 1 x2[2]
i1 2 y2[1]
i2 2 y2[0]
i3 1 x2[1]
i4 1 x2[3]
i5 2 y2[2]
i6 1 x2[4]
i7 2 y2[3]
i8 2 y2[4]
i9 1 x2[5]
i10 2 y2[5]
i11 1 x2[6]
i12 2 y2[6]
i13 1 x2[7]
i14 2 y2[7]
o0 bv[0]
c
simplified
  >=
    subtract
      1
      2 y2
    add
      >> 1
        1 x2
      2 y2
