words_hard_train/6799.qaiger.qdimacs
p cnf 130 346
a 1 8 14 78 24 59 94 0
e 2 3 4 5 6 7 9 10 11 12 13 15 16 17 18 19 20 21 22 23 25 26 27 28 29 30 31 32 33 34 35 36 37 38 39 40 41 42 43 44 45 46 47 48 49 50 51 52 53 54 55 56 57 58 60 61 62 63 64 65 66 67 68 69 70 71 72 73 74 75 76 77 79 80 81 82 83 84 85 86 87 88 89 90 91 92 93 95 96 97 98 99 100 101 102 103 104 105 106 107 108 109 110 111 112 113 114 115 116 117 118 119 120 121 122 123 124 125 126 127 128 129 130 0
1 2 3 0
-1 -3 0
-2 -3 0
-1 -2 4 0
1 -4 0
2 -4 0
3 4 5 0
-3 -5 0
-4 -5 0
5 6 7 0
-5 -7 0
-6 -7 0
-7 8 9 0
7 -9 0
-8 -9 0
-5 -6 10 0
5 -10 0
6 -10 0
-10 -8 11 0
10 -11 0
8 -11 0
9 11 12 0
-9 -12 0
-11 -12 0
11 4 13 0
-11 -13 0
-4 -13 0
14 15 16 0
-14 -16 0
-15 -16 0
-14 -15 17 0
14 -17 0
15 -17 0
16 17 18 0
-16 -18 0
-17 -18 0
-13 18 19 0
13 -19 0
-18 -19 0
13 -18 20 0
-13 -20 0
18 -20 0
19 20 21 0
-19 -21 0
-20 -21 0
12 21 22 0
-12 -22 0
-21 -22 0
20 17 23 0
-20 -23 0
-17 -23 0
24 25 26 0
-24 -26 0
-25 -26 0
-24 -25 27 0
24 -27 0
25 -27 0
26 27 28 0
-26 -28 0
-27 -28 0
-23 28 29 0
23 -29 0
-28 -29 0
23 -28 30 0
-23 -30 0
28 -30 0
29 30 31 0
-29 -31 0
-30 -31 0
22 -31 32 0
-22 -32 0
31 -32 0
-22 31 33 0
22 -33 0
-31 -33 0
32 33 34 0
-32 -34 0
-33 -34 0
-12 -21 35 0
12 -35 0
21 -35 0
35 22 36 0
-35 -36 0
-22 -36 0
6 1 37 0
-6 -37 0
-1 -37 0
37 4 38 0
-37 -38 0
-4 -38 0
38 9 39 0
-38 -39 0
-9 -39 0
-2 -15 40 0
2 -40 0
15 -40 0
2 15 41 0
-2 -41 0
-15 -41 0
40 41 42 0
-40 -42 0
-41 -42 0
-39 -42 43 0
39 -43 0
42 -43 0
36 43 44 0
-36 -44 0
-43 -44 0
39 42 45 0
-39 -45 0
-42 -45 0
44 45 46 0
-44 -46 0
-45 -46 0
41 -25 47 0
-41 -47 0
25 -47 0
-41 25 48 0
41 -48 0
-25 -48 0
47 48 49 0
-47 -49 0
-48 -49 0
-46 -49 50 0
46 -50 0
49 -50 0
34 50 51 0
-34 -51 0
-50 -51 0
46 49 52 0
-46 -52 0
-49 -52 0
51 52 53 0
-51 -53 0
-52 -53 0
48 -54 55 0
-48 -55 0
54 -55 0
-48 54 56 0
48 -56 0
-54 -56 0
55 56 57 0
-55 -57 0
-56 -57 0
30 27 58 0
-30 -58 0
-27 -58 0
59 54 60 0
-59 -60 0
-54 -60 0
-59 -54 61 0
59 -61 0
54 -61 0
60 61 62 0
-60 -62 0
-61 -62 0
-58 62 63 0
58 -63 0
-62 -63 0
58 -62 64 0
-58 -64 0
62 -64 0
63 64 65 0
-63 -65 0
-64 -65 0
33 -65 66 0
-33 -66 0
65 -66 0
-33 65 67 0
33 -67 0
-65 -67 0
66 67 68 0
-66 -68 0
-67 -68 0
57 68 69 0
-57 -69 0
-68 -69 0
-53 69 70 0
53 -70 0
-69 -70 0
-57 -68 71 0
57 -71 0
68 -71 0
70 71 72 0
-70 -72 0
-71 -72 0
56 -73 74 0
-56 -74 0
73 -74 0
-56 73 75 0
56 -75 0
-73 -75 0
74 75 76 0
-74 -76 0
-75 -76 0
64 61 77 0
-64 -77 0
-61 -77 0
78 73 79 0
-78 -79 0
-73 -79 0
-78 -73 80 0
78 -80 0
73 -80 0
79 80 81 0
-79 -81 0
-80 -81 0
-77 81 82 0
77 -82 0
-81 -82 0
77 -81 83 0
-77 -83 0
81 -83 0
82 83 84 0
-82 -84 0
-83 -84 0
67 -84 85 0
-67 -85 0
84 -85 0
-67 84 86 0
67 -86 0
-84 -86 0
85 86 87 0
-85 -87 0
-86 -87 0
76 87 88 0
-76 -88 0
-87 -88 0
72 88 89 0
-72 -89 0
-88 -89 0
-76 -87 90 0
76 -90 0
87 -90 0
89 90 91 0
-89 -91 0
-90 -91 0
83 80 92 0
-83 -92 0
-80 -92 0
93 94 95 0
-93 -95 0
-94 -95 0
-93 -94 96 0
93 -96 0
94 -96 0
95 96 97 0
-95 -97 0
-96 -97 0
-92 97 98 0
92 -98 0
-97 -98 0
92 -97 99 0
-92 -99 0
97 -99 0
98 99 100 0
-98 -100 0
-99 -100 0
-100 86 101 0
100 -101 0
-86 -101 0
100 -86 102 0
-100 -102 0
86 -102 0
101 102 103 0
-101 -103 0
-102 -103 0
75 -93 104 0
-75 -104 0
93 -104 0
-75 93 105 0
75 -105 0
-93 -105 0
104 105 106 0
-104 -106 0
-105 -106 0
103 106 107 0
-103 -107 0
-106 -107 0
91 107 108 0
-91 -108 0
-107 -108 0
-103 -106 109 0
103 -109 0
106 -109 0
108 109 110 0
-108 -110 0
-109 -110 0
-94 -111 112 0
94 -112 0
111 -112 0
94 111 113 0
-94 -113 0
-111 -113 0
112 113 114 0
-112 -114 0
-113 -114 0
99 96 115 0
-99 -115 0
-96 -115 0
-114 115 116 0
114 -116 0
-115 -116 0
114 -115 117 0
-114 -117 0
115 -117 0
116 117 118 0
-116 -118 0
-117 -118 0
110 -118 119 0
-110 -119 0
118 -119 0
-105 111 120 0
105 -120 0
-111 -120 0
105 -111 121 0
-105 -121 0
111 -121 0
120 121 122 0
-120 -122 0
-121 -122 0
119 -122 123 0
-119 -123 0
122 -123 0
-123 102 124 0
123 -124 0
-102 -124 0
122 -102 125 0
-122 -125 0
102 -125 0
-110 125 126 0
110 -126 0
-125 -126 0
126 119 127 0
-126 -127 0
-119 -127 0
-118 125 128 0
118 -128 0
-125 -128 0
127 128 129 0
-127 -129 0
-128 -129 0
124 129 130 0
-124 -130 0
-129 -130 0
130 0
